c Random generated cnf formula, satisfiable: true
p cnf 10 50
7 -5 -6 0
5 -6 2 0
-9 4 7 0
-6 -7 2 0
10 7 1 0
3 -10 -8 0
10 -9 -7 0
8 -7 5 0
-5 8 2 0
1 -5 -9 0
-1 -7 6 0
1 -8 9 0
-8 -7 3 0
-8 4 -3 0
2 -5 -1 0
-7 2 -3 0
2 7 -10 0
5 -6 -10 0
4 8 10 0
5 10 7 0
-10 -2 -1 0
1 2 -4 0
2 -4 -3 0
-8 4 -5 0
-6 -8 1 0
-5 -9 -8 0
4 7 5 0
1 -3 -10 0
9 -5 -2 0
9 -5 2 0
5 -9 -3 0
1 9 -8 0
6 -9 8 0
7 6 9 0
2 8 -6 0
8 3 10 0
7 5 8 0
1 2 4 0
-2 -8 -9 0
-3 7 -8 0
-10 8 -3 0
9 6 -1 0
10 9 4 0
-6 9 7 0
-3 10 1 0
-2 -7 -5 0
10 3 -2 0
-9 3 7 0
-10 2 -1 0
10 2 -8 0
